(set-info :smt-lib-version 2.6)
(set-logic QF_S)
(set-info :source |
Generated by: Murphy Berzish, Mitja Kulczynski, Federico Mora, Florin Manea, Joel Day, Dirk Nowotka, Vijay Ganesh, Zhengyang Lu
Generated on: 2020-10-01
Description: Translated from a collection of real-world regex queries, AutomataArk, collected by Loris D’Antoni and Fang Wang: https://github.com/lorisdanto/automatark
Application: Evaluate solvers on real-world regex queries
Target solver: Z3str3RE, CVC4, OSTRICH, Z3seq, Z3str3, Z3-Trau
Publications: Berzish, M., Kulczynski, M., Mora, F., Manea, F., Day, J. D., Nowotka, D., & Ganesh, V. (2021, July). An SMT solver for regular expressions and linear arithmetic over string length. In CAV 2021.
|)
(set-info :license "https://creativecommons.org/licenses/by/4.0/")
(set-info :category "industrial")
(set-info :status unsat)

(declare-const X String)
(assert (not (str.in_re X (re.++ (str.to_re "port") (re.+ (re.range "0" "9")) (str.to_re ".compress") (re.+ (re.union (str.to_re " ") (str.to_re "\u{9}") (str.to_re "\u{a}") (str.to_re "\u{c}") (str.to_re "\u{d}"))) (str.to_re "aresflashdownloader.comv.dll?[DRIVEHost:\u{b0}\u{ae}\u{b6}\u{f9}\u{cd}\u{f8}\u{b5}\u{c1}\u{a}")))))
(assert (str.in_re X (re.++ (str.to_re "//software.php?/Ui\u{a}") ((_ re.loop 15 15) (re.range "0" "9")) (re.* (re.range "0" "9")))))
(assert (not (str.in_re X (re.++ (str.to_re "/.document.insertBefore") (re.* (re.union (str.to_re " ") (str.to_re "\u{9}") (str.to_re "\u{a}") (str.to_re "\u{c}") (str.to_re "\u{d}"))) (str.to_re "(") (re.+ (re.comp (str.to_re ","))) (str.to_re ")/smi\u{a}")))))
(assert (str.in_re X (re.++ (re.+ (re.++ ((_ re.loop 1 1) (re.range "1" "9")) ((_ re.loop 2 2) (re.opt (re.range "0" "9"))))) (re.* (re.++ (str.to_re ",") ((_ re.loop 1 1) (re.range "0" "9")) ((_ re.loop 2 2) (re.range "0" "9")))) (str.to_re "\u{a}"))))
(check-sat)

(exit)
